decision_x1=[0,7];
decision_x2=[0,7];
decision_x3=[0,7];
decision_x4=[0,7];
decision_x5=[0,7];
decision_x6=[0,7];
decision_x7=[0,7];
decision_x8=[0,7];
decision_x9=[0,7];
decision_x10=[0,7];
decision_x11=[0,7];
decision_x12=[0,7];
decision_x13=[0,7];
decision_x14=[0,7];
random_y1=[0,7];
random_y2=[0,7];
random_y3=[0,7];
random_y4=[0,7];
random_y5=[0,7];
random_y6=[0,7];
constraint_x2_x1=[
0,0,7|
0,1,9.2|
0,2,2.1|
0,3,0.43|
0,4,1.1|
0,5,8.9|
0,6,2.9|
0,7,0.85|
1,0,5.7|
1,1,9|
1,2,6.4|
1,3,7.6|
1,4,0.26|
1,5,0.22|
1,6,7.8|
1,7,7.7|
2,0,8.6|
2,1,4.5|
2,2,0.79|
2,3,8.7|
2,4,9.2|
2,5,0.28|
2,6,8|
2,7,0.29|
3,0,1.1|
3,1,8.5|
3,2,1.5|
3,3,8.1|
3,4,2.7|
3,5,0.16|
3,6,5.8|
3,7,8.5|
4,0,7.3|
4,1,1|
4,2,2.9|
4,3,3|
4,4,9.4|
4,5,2.4|
4,6,7.5|
4,7,2.5|
5,0,0.22|
5,1,5.1|
5,2,3.5|
5,3,0.76|
5,4,6.2|
5,5,9.1|
5,6,5.7|
5,7,2|
6,0,2.3|
6,1,1.8|
6,2,0.61|
6,3,7.3|
6,4,2.1|
6,5,1.3|
6,6,6.4|
6,7,3.2|
7,0,9.4|
7,1,2.4|
7,2,1.3|
7,3,2.1|
7,4,8.4|
7,5,9.1|
7,6,8|
7,7,0.93|
];
constraint_x3_x2=[
0,0,8.9|
0,1,0.22|
0,2,7.9|
0,3,3|
0,4,0.78|
0,5,7.4|
0,6,9.2|
0,7,9.9|
1,0,2.5|
1,1,1.2|
1,2,7.6|
1,3,3.4|
1,4,3.6|
1,5,2.6|
1,6,3.6|
1,7,7.3|
2,0,2.2|
2,1,2.1|
2,2,7.4|
2,3,8.3|
2,4,3.4|
2,5,7.6|
2,6,5.5|
2,7,2.8|
3,0,1.3|
3,1,4.7|
3,2,1.6|
3,3,5.2|
3,4,8.4|
3,5,5.4|
3,6,0.02|
3,7,2.8|
4,0,2.9|
4,1,4.3|
4,2,4.9|
4,3,3.6|
4,4,9.9|
4,5,9.4|
4,6,3.3|
4,7,3.4|
5,0,6.9|
5,1,3|
5,2,3.6|
5,3,5.8|
5,4,3.1|
5,5,5.7|
5,6,4.2|
5,7,9|
6,0,5.3|
6,1,7.2|
6,2,0.24|
6,3,0.83|
6,4,5.6|
6,5,2.8|
6,6,3.1|
6,7,9.9|
7,0,1|
7,1,1.3|
7,2,3.6|
7,3,7.4|
7,4,0.65|
7,5,9.1|
7,6,3|
7,7,8.7|
];
constraint_x4_x3=[
0,0,6.7|
0,1,4.8|
0,2,2.8|
0,3,0.29|
0,4,9.6|
0,5,4.2|
0,6,3.8|
0,7,3.8|
1,0,0.41|
1,1,7.1|
1,2,1.9|
1,3,8.4|
1,4,4.2|
1,5,2.2|
1,6,1.5|
1,7,6.8|
2,0,5.9|
2,1,9.9|
2,2,8.3|
2,3,8.6|
2,4,0.68|
2,5,7.5|
2,6,2.6|
2,7,2.7|
3,0,0.75|
3,1,2.1|
3,2,3.8|
3,3,4.5|
3,4,5.4|
3,5,1.2|
3,6,5.2|
3,7,1.3|
4,0,8.9|
4,1,3.6|
4,2,7.2|
4,3,6.1|
4,4,2.6|
4,5,7.7|
4,6,5.8|
4,7,1.5|
5,0,9.6|
5,1,5.7|
5,2,6.9|
5,3,9.4|
5,4,0.84|
5,5,3.6|
5,6,8.5|
5,7,8.2|
6,0,6.7|
6,1,4.2|
6,2,1.4|
6,3,5.3|
6,4,2|
6,5,0.27|
6,6,0.11|
6,7,7.2|
7,0,1.8|
7,1,6.1|
7,2,5.3|
7,3,4.4|
7,4,4.6|
7,5,8.5|
7,6,9.2|
7,7,7.5|
];
constraint_x5_x1=[
0,0,0.48|
0,1,8.8|
0,2,4.6|
0,3,4.4|
0,4,2.1|
0,5,0.99|
0,6,0.27|
0,7,8.4|
1,0,0.0018|
1,1,1.4|
1,2,5.8|
1,3,8|
1,4,3.7|
1,5,5.5|
1,6,5.5|
1,7,8.1|
2,0,6.4|
2,1,6.7|
2,2,0.22|
2,3,6|
2,4,6|
2,5,4.3|
2,6,7.4|
2,7,1.8|
3,0,9.4|
3,1,7.9|
3,2,3.8|
3,3,7|
3,4,0.34|
3,5,2.5|
3,6,9.4|
3,7,4.2|
4,0,8.1|
4,1,6.1|
4,2,9.1|
4,3,3.7|
4,4,8.2|
4,5,1.5|
4,6,2.8|
4,7,7.4|
5,0,4.6|
5,1,6.6|
5,2,3.2|
5,3,2.5|
5,4,7.9|
5,5,0.29|
5,6,4|
5,7,3.7|
6,0,1.4|
6,1,6.6|
6,2,3.8|
6,3,3.5|
6,4,6.5|
6,5,6.6|
6,6,8|
6,7,8.9|
7,0,0.3|
7,1,3.7|
7,2,5.7|
7,3,1.6|
7,4,3.6|
7,5,2.2|
7,6,3.2|
7,7,1.9|
];
constraint_x6_x2=[
0,0,8.2|
0,1,0.69|
0,2,9.8|
0,3,5|
0,4,0.13|
0,5,2.1|
0,6,4|
0,7,7.3|
1,0,3.2|
1,1,4.4|
1,2,4.6|
1,3,0.48|
1,4,9.4|
1,5,6.9|
1,6,0.015|
1,7,5|
2,0,0.59|
2,1,5.9|
2,2,3.5|
2,3,5.4|
2,4,2|
2,5,1.9|
2,6,3|
2,7,7.9|
3,0,3.2|
3,1,5.9|
3,2,9.1|
3,3,0.43|
3,4,9.6|
3,5,6.1|
3,6,4.2|
3,7,6.5|
4,0,5.3|
4,1,8.7|
4,2,4.6|
4,3,2.1|
4,4,4.3|
4,5,2.6|
4,6,2.9|
4,7,9.4|
5,0,0.84|
5,1,4.5|
5,2,9.2|
5,3,8.2|
5,4,2.9|
5,5,7|
5,6,6.5|
5,7,3.2|
6,0,3.4|
6,1,0.82|
6,2,0.55|
6,3,1.1|
6,4,3.7|
6,5,1.6|
6,6,2.4|
6,7,4.8|
7,0,7.6|
7,1,6.5|
7,2,6|
7,3,9.9|
7,4,5.2|
7,5,5.7|
7,6,5.3|
7,7,1.6|
];
constraint_x7_x3=[
0,0,2.5|
0,1,2|
0,2,1.1|
0,3,5.9|
0,4,0.45|
0,5,5.7|
0,6,7.1|
0,7,9.8|
1,0,8.1|
1,1,5|
1,2,3.8|
1,3,0.36|
1,4,9|
1,5,0.054|
1,6,8.6|
1,7,2.9|
2,0,2.5|
2,1,5.8|
2,2,9.8|
2,3,0.033|
2,4,5.2|
2,5,3.2|
2,6,6.1|
2,7,9|
3,0,1.4|
3,1,2.6|
3,2,3.4|
3,3,7.2|
3,4,0.63|
3,5,7.9|
3,6,6.6|
3,7,0.39|
4,0,9.4|
4,1,3|
4,2,2.2|
4,3,0.88|
4,4,5.8|
4,5,0.47|
4,6,0.84|
4,7,3.2|
5,0,6|
5,1,9.7|
5,2,2.4|
5,3,4.4|
5,4,6.1|
5,5,8.1|
5,6,9|
5,7,1.9|
6,0,6.1|
6,1,6.2|
6,2,2|
6,3,6.9|
6,4,0.2|
6,5,1.8|
6,6,3|
6,7,3.9|
7,0,4.4|
7,1,4.5|
7,2,6.1|
7,3,3.2|
7,4,4.7|
7,5,4.5|
7,6,6.3|
7,7,3.4|
];
constraint_x8_x4=[
0,0,6|
0,1,9.4|
0,2,3.9|
0,3,0.014|
0,4,0.53|
0,5,0.15|
0,6,4|
0,7,4.2|
1,0,4|
1,1,6.9|
1,2,9.3|
1,3,9.4|
1,4,9|
1,5,2.2|
1,6,1.4|
1,7,2.3|
2,0,7.8|
2,1,3.6|
2,2,8.6|
2,3,4.6|
2,4,2|
2,5,3.8|
2,6,9.2|
2,7,9.8|
3,0,7.7|
3,1,0.64|
3,2,0.16|
3,3,7.5|
3,4,3.5|
3,5,6.3|
3,6,2.4|
3,7,1.4|
4,0,0.18|
4,1,8|
4,2,4.3|
4,3,4.4|
4,4,2.8|
4,5,9.4|
4,6,1.6|
4,7,4.8|
5,0,7.9|
5,1,5.1|
5,2,7.4|
5,3,3.5|
5,4,9.1|
5,5,0.57|
5,6,2|
5,7,2.2|
6,0,6|
6,1,3.6|
6,2,7.5|
6,3,9.6|
6,4,4|
6,5,6.7|
6,6,9|
6,7,9.4|
7,0,0.49|
7,1,2.8|
7,2,3.2|
7,3,2.7|
7,4,0.5|
7,5,7.9|
7,6,9.7|
7,7,0.38|
];
constraint_x9_x5=[
0,0,9|
0,1,4.7|
0,2,8.2|
0,3,5.7|
0,4,6.3|
0,5,2.2|
0,6,0.46|
0,7,1.3|
1,0,4.3|
1,1,0.36|
1,2,2.6|
1,3,5.9|
1,4,9.4|
1,5,8.8|
1,6,5.1|
1,7,5.3|
2,0,4.8|
2,1,0.82|
2,2,7.7|
2,3,3.3|
2,4,8|
2,5,5.5|
2,6,2.4|
2,7,4.1|
3,0,7.5|
3,1,7.6|
3,2,2|
3,3,3.4|
3,4,5.7|
3,5,0.89|
3,6,7.1|
3,7,4.8|
4,0,8.2|
4,1,6.9|
4,2,3.4|
4,3,9.3|
4,4,4|
4,5,9.6|
4,6,8.5|
4,7,0.66|
5,0,3.3|
5,1,4.1|
5,2,7.1|
5,3,8.9|
5,4,9.3|
5,5,8.1|
5,6,5|
5,7,3.9|
6,0,5.3|
6,1,1.9|
6,2,8.1|
6,3,0.99|
6,4,2.1|
6,5,4.4|
6,6,3.2|
6,7,8.8|
7,0,0.68|
7,1,9|
7,2,4.9|
7,3,1.7|
7,4,2.2|
7,5,3.3|
7,6,8.4|
7,7,3|
];
constraint_x10_x6=[
0,0,8.1|
0,1,6|
0,2,7|
0,3,3.4|
0,4,2.1|
0,5,3.7|
0,6,0.39|
0,7,1.6|
1,0,8.7|
1,1,5|
1,2,1.2|
1,3,4.3|
1,4,6.1|
1,5,3.9|
1,6,3.1|
1,7,3.4|
2,0,5.8|
2,1,2.3|
2,2,9.4|
2,3,9.1|
2,4,8.6|
2,5,2.5|
2,6,9.3|
2,7,0.39|
3,0,9.5|
3,1,7.4|
3,2,8.1|
3,3,4.7|
3,4,5.9|
3,5,7.3|
3,6,7|
3,7,9.6|
4,0,2.4|
4,1,2.3|
4,2,1.3|
4,3,2.6|
4,4,0.25|
4,5,1.4|
4,6,2.2|
4,7,2.3|
5,0,0.16|
5,1,0.37|
5,2,9.1|
5,3,8.7|
5,4,4|
5,5,6.9|
5,6,6.5|
5,7,4|
6,0,0.79|
6,1,1.3|
6,2,0.87|
6,3,7|
6,4,9.8|
6,5,6.9|
6,6,3.8|
6,7,4.2|
7,0,6.6|
7,1,8.3|
7,2,7.8|
7,3,6.2|
7,4,3.2|
7,5,3.9|
7,6,1.1|
7,7,9.7|
];
constraint_x11_x7=[
0,0,3.5|
0,1,6.2|
0,2,4|
0,3,2.8|
0,4,0.27|
0,5,7.1|
0,6,7.1|
0,7,3|
1,0,4.3|
1,1,7.3|
1,2,3|
1,3,5.2|
1,4,7|
1,5,8.7|
1,6,1.7|
1,7,6.7|
2,0,8.2|
2,1,0.49|
2,2,6.3|
2,3,3|
2,4,1.4|
2,5,9.6|
2,6,5.4|
2,7,3.3|
3,0,9.1|
3,1,4.2|
3,2,2.7|
3,3,8.2|
3,4,0.8|
3,5,2.5|
3,6,9.8|
3,7,7.3|
4,0,6.5|
4,1,9.6|
4,2,6.3|
4,3,5.6|
4,4,0.82|
4,5,0.63|
4,6,8.6|
4,7,5|
5,0,6.6|
5,1,1.9|
5,2,2.2|
5,3,2.4|
5,4,4.6|
5,5,7.4|
5,6,4.4|
5,7,5|
6,0,5.5|
6,1,0.21|
6,2,7.2|
6,3,4|
6,4,4.8|
6,5,7.6|
6,6,5.8|
6,7,3.9|
7,0,3.9|
7,1,0.17|
7,2,4.5|
7,3,0.88|
7,4,3.2|
7,5,4.1|
7,6,1.7|
7,7,6.4|
];
constraint_x12_x8=[
0,0,3.8|
0,1,6.1|
0,2,2.7|
0,3,2.9|
0,4,4.4|
0,5,3.1|
0,6,2.6|
0,7,2|
1,0,8.2|
1,1,4.6|
1,2,3.4|
1,3,4.5|
1,4,4.9|
1,5,9.1|
1,6,9|
1,7,1.4|
2,0,7.6|
2,1,2|
2,2,2.2|
2,3,3.2|
2,4,4.1|
2,5,2.1|
2,6,7.8|
2,7,6.1|
3,0,4.2|
3,1,3.7|
3,2,9.5|
3,3,7.6|
3,4,4.4|
3,5,0.6|
3,6,5.1|
3,7,3.6|
4,0,5.1|
4,1,5.7|
4,2,9.7|
4,3,9.1|
4,4,6.9|
4,5,5|
4,6,1.3|
4,7,6.1|
5,0,4.2|
5,1,1.6|
5,2,9.9|
5,3,4.9|
5,4,4.4|
5,5,7|
5,6,8.6|
5,7,3.2|
6,0,9.2|
6,1,4.1|
6,2,1.3|
6,3,2.7|
6,4,9.9|
6,5,4.6|
6,6,7|
6,7,7.7|
7,0,2.7|
7,1,5.4|
7,2,6.1|
7,3,5.6|
7,4,1.7|
7,5,5.4|
7,6,6.5|
7,7,5.3|
];
constraint_x13_x9=[
0,0,3.4|
0,1,7.8|
0,2,2.2|
0,3,4.6|
0,4,6.6|
0,5,3.8|
0,6,2.9|
0,7,8.3|
1,0,4|
1,1,6.6|
1,2,2.5|
1,3,8.9|
1,4,1.4|
1,5,4.7|
1,6,6.7|
1,7,0.31|
2,0,7.1|
2,1,6|
2,2,6.6|
2,3,7|
2,4,9.7|
2,5,0.3|
2,6,1.3|
2,7,8.2|
3,0,7.9|
3,1,7.3|
3,2,8.2|
3,3,7.4|
3,4,9.6|
3,5,4.5|
3,6,0.43|
3,7,6.9|
4,0,9|
4,1,9.1|
4,2,2.4|
4,3,8.7|
4,4,9.8|
4,5,0.59|
4,6,6|
4,7,0.41|
5,0,5.7|
5,1,8.4|
5,2,6.7|
5,3,5.8|
5,4,7|
5,5,2.8|
5,6,0.82|
5,7,7.7|
6,0,7.9|
6,1,4.9|
6,2,6.1|
6,3,2.3|
6,4,1.6|
6,5,8|
6,6,9.2|
6,7,9.7|
7,0,0.065|
7,1,9.2|
7,2,7.6|
7,3,0.8|
7,4,2.9|
7,5,9.7|
7,6,10|
7,7,6|
];
constraint_x14_x10=[
0,0,0.63|
0,1,6.5|
0,2,1.5|
0,3,7.3|
0,4,5.2|
0,5,7.5|
0,6,0.94|
0,7,0.8|
1,0,8.2|
1,1,5.1|
1,2,3.1|
1,3,3.9|
1,4,5.1|
1,5,1.5|
1,6,3.9|
1,7,6.8|
2,0,8.4|
2,1,8.3|
2,2,9.9|
2,3,6.6|
2,4,8.8|
2,5,5.4|
2,6,6.8|
2,7,8.5|
3,0,2.5|
3,1,1.7|
3,2,7.6|
3,3,3.1|
3,4,9.8|
3,5,7.9|
3,6,7.4|
3,7,8|
4,0,6.3|
4,1,5.9|
4,2,6.1|
4,3,7.5|
4,4,1.8|
4,5,0.41|
4,6,2.9|
4,7,3.4|
5,0,1.4|
5,1,2.6|
5,2,7.2|
5,3,3.8|
5,4,6.1|
5,5,0.62|
5,6,9.2|
5,7,6.3|
6,0,2.8|
6,1,4.2|
6,2,0.78|
6,3,4.9|
6,4,4.1|
6,5,7.2|
6,6,10|
6,7,8.6|
7,0,6.3|
7,1,9.6|
7,2,2.4|
7,3,5.6|
7,4,1.9|
7,5,3.9|
7,6,9.6|
7,7,7.9|
];
constraint_x1_y1=[
0,0,4.1|
0,1,5|
0,2,1.2|
0,3,4.5|
0,4,6.2|
0,5,1|
0,6,6.9|
0,7,4.5|
1,0,0.077|
1,1,4.5|
1,2,8.9|
1,3,4|
1,4,1|
1,5,0.42|
1,6,3.9|
1,7,2.6|
2,0,2.6|
2,1,7.1|
2,2,0.34|
2,3,9.5|
2,4,4|
2,5,2.2|
2,6,2.6|
2,7,7.8|
3,0,0.56|
3,1,3.1|
3,2,8.6|
3,3,9.5|
3,4,4.5|
3,5,2|
3,6,1.1|
3,7,2.3|
4,0,9.5|
4,1,7.6|
4,2,6.7|
4,3,9.6|
4,4,0.78|
4,5,7.5|
4,6,0.27|
4,7,2.3|
5,0,2.1|
5,1,6.2|
5,2,3.6|
5,3,2.8|
5,4,4.7|
5,5,5.9|
5,6,5.5|
5,7,0.38|
6,0,0.3|
6,1,0.23|
6,2,8.1|
6,3,6.2|
6,4,5.4|
6,5,6|
6,6,0.72|
6,7,8.9|
7,0,0.042|
7,1,2.8|
7,2,3.4|
7,3,2.9|
7,4,4.7|
7,5,1.6|
7,6,6.2|
7,7,1.3|
];
constraint_x2_y2=[
0,0,5.7|
0,1,6|
0,2,3.7|
0,3,6.4|
0,4,5.7|
0,5,6.7|
0,6,6|
0,7,5.4|
1,0,7.4|
1,1,0.7|
1,2,2.6|
1,3,8.4|
1,4,9.6|
1,5,1.8|
1,6,2|
1,7,6.6|
2,0,9.2|
2,1,6.2|
2,2,0.53|
2,3,2.5|
2,4,2.5|
2,5,5.6|
2,6,3.5|
2,7,5.4|
3,0,3.8|
3,1,0.9|
3,2,5.3|
3,3,0.069|
3,4,3.9|
3,5,1.3|
3,6,1.5|
3,7,1.5|
4,0,6.4|
4,1,3.9|
4,2,7.3|
4,3,5.6|
4,4,4|
4,5,6.9|
4,6,1.4|
4,7,9.7|
5,0,3.3|
5,1,3.6|
5,2,7.5|
5,3,2.4|
5,4,1.6|
5,5,8.7|
5,6,9.4|
5,7,7|
6,0,5.7|
6,1,3.7|
6,2,6|
6,3,8.6|
6,4,6|
6,5,7.9|
6,6,8.3|
6,7,4|
7,0,8.6|
7,1,8.7|
7,2,7.1|
7,3,7.6|
7,4,0.92|
7,5,4.9|
7,6,3.9|
7,7,8.6|
];
constraint_x3_y3=[
0,0,8.9|
0,1,8.2|
0,2,4.2|
0,3,7.2|
0,4,1.2|
0,5,7.6|
0,6,9|
0,7,4.3|
1,0,6.4|
1,1,6.6|
1,2,4.4|
1,3,7|
1,4,4.5|
1,5,5.9|
1,6,4.8|
1,7,2.2|
2,0,7.5|
2,1,7.6|
2,2,7|
2,3,3.5|
2,4,7.5|
2,5,4.4|
2,6,6.7|
2,7,3.4|
3,0,8.2|
3,1,1.8|
3,2,8.4|
3,3,3.9|
3,4,8.4|
3,5,2.6|
3,6,7.1|
3,7,2.1|
4,0,0.72|
4,1,5.6|
4,2,9.7|
4,3,8.1|
4,4,1.5|
4,5,7.1|
4,6,6.7|
4,7,8|
5,0,3.1|
5,1,2.2|
5,2,2.3|
5,3,3.8|
5,4,9.7|
5,5,8.8|
5,6,3.2|
5,7,3.2|
6,0,6.2|
6,1,5.7|
6,2,2|
6,3,6.5|
6,4,6.7|
6,5,5.4|
6,6,9.7|
6,7,6.7|
7,0,2.7|
7,1,9.5|
7,2,4.8|
7,3,0.47|
7,4,9.4|
7,5,7.5|
7,6,0.29|
7,7,0.76|
];
constraint_x4_y4=[
0,0,5.2|
0,1,5|
0,2,8.7|
0,3,7.3|
0,4,5.9|
0,5,1.5|
0,6,4.6|
0,7,8.8|
1,0,8.4|
1,1,7.5|
1,2,7.2|
1,3,3.7|
1,4,8.3|
1,5,3.8|
1,6,5.2|
1,7,0.21|
2,0,8.9|
2,1,2.5|
2,2,8.5|
2,3,2.9|
2,4,6.8|
2,5,7.8|
2,6,9.3|
2,7,7.1|
3,0,2.9|
3,1,7.1|
3,2,6.9|
3,3,2.1|
3,4,9.1|
3,5,2.4|
3,6,7.1|
3,7,1.7|
4,0,5.8|
4,1,5.7|
4,2,6.1|
4,3,9|
4,4,4.8|
4,5,8.6|
4,6,7.9|
4,7,1.8|
5,0,7.6|
5,1,0.66|
5,2,1.4|
5,3,9.6|
5,4,5.6|
5,5,8.7|
5,6,7.4|
5,7,2.4|
6,0,3.1|
6,1,5.6|
6,2,6.1|
6,3,0.76|
6,4,8.3|
6,5,8.9|
6,6,1.8|
6,7,1.7|
7,0,2.3|
7,1,4.9|
7,2,7.9|
7,3,4.9|
7,4,1.4|
7,5,8|
7,6,8.7|
7,7,1.3|
];
constraint_x5_y5=[
0,0,3.8|
0,1,0.21|
0,2,1.4|
0,3,0.093|
0,4,4.8|
0,5,5|
0,6,9.9|
0,7,1.3|
1,0,5.8|
1,1,0.52|
1,2,8.7|
1,3,9.3|
1,4,0.27|
1,5,4.4|
1,6,1.1|
1,7,3.6|
2,0,0.87|
2,1,6.3|
2,2,7.1|
2,3,7.9|
2,4,7.2|
2,5,9.3|
2,6,2.9|
2,7,7.5|
3,0,0.96|
3,1,3.6|
3,2,9.1|
3,3,7.9|
3,4,4.1|
3,5,1.9|
3,6,4.6|
3,7,0.17|
4,0,6.2|
4,1,7|
4,2,9.5|
4,3,9.9|
4,4,4|
4,5,0.88|
4,6,1.6|
4,7,6.6|
5,0,6.8|
5,1,9.2|
5,2,7.2|
5,3,7.1|
5,4,1.8|
5,5,3.8|
5,6,4.7|
5,7,3.5|
6,0,1.3|
6,1,3.8|
6,2,1.8|
6,3,3.1|
6,4,3.6|
6,5,8.2|
6,6,8.9|
6,7,8.2|
7,0,5.3|
7,1,6.1|
7,2,1.7|
7,3,4.3|
7,4,5.3|
7,5,8.7|
7,6,1.7|
7,7,2.5|
];
constraint_x6_y6=[
0,0,3.7|
0,1,2.8|
0,2,6.2|
0,3,7.6|
0,4,1.2|
0,5,5.3|
0,6,8.5|
0,7,6.5|
1,0,0.048|
1,1,2.5|
1,2,4.4|
1,3,1.8|
1,4,0.99|
1,5,4.9|
1,6,3.7|
1,7,4.6|
2,0,6.2|
2,1,2.8|
2,2,7.8|
2,3,3.9|
2,4,5.7|
2,5,1.6|
2,6,1.3|
2,7,7.4|
3,0,6.4|
3,1,8.3|
3,2,9.2|
3,3,7.5|
3,4,1.5|
3,5,2.5|
3,6,5.6|
3,7,8.6|
4,0,6.2|
4,1,8.6|
4,2,6.9|
4,3,1.6|
4,4,4.4|
4,5,5|
4,6,2|
4,7,4.3|
5,0,9.2|
5,1,9.7|
5,2,4.4|
5,3,9.1|
5,4,2.8|
5,5,6.5|
5,6,4.9|
5,7,4.7|
6,0,0.97|
6,1,8.4|
6,2,8.8|
6,3,2.5|
6,4,7.3|
6,5,7|
6,6,7.8|
6,7,8.7|
7,0,3.8|
7,1,9.5|
7,2,4.4|
7,3,3.7|
7,4,8.6|
7,5,7.7|
7,6,4.3|
7,7,4.1|
];
initial_distribution_y1=[0.19,0.088,0.077,0.14,0.17,0.054,0.15,0.12];
initial_distribution_y2=[0.028,0.26,0.16,0.048,0.12,0.22,0.12,0.049];
initial_distribution_y3=[0.026,0.077,0.21,0.16,0.2,0.15,0.074,0.12];
initial_distribution_y4=[0.097,0.13,0.095,0.11,0.15,0.2,0.17,0.047];
initial_distribution_y5=[0.0093,0.18,0.18,0.054,0.19,0.21,0.15,0.028];
initial_distribution_y6=[0.29,0.0035,0.13,0.022,0.078,0.047,0.2,0.24];
transition_y1=[
0.25,0.0035,0.2,0.059,0.044,0.17,0.17,0.11|
0.14,0.15,0.18,0.022,0.065,0.18,0.064,0.19|
0.17,0.13,0.17,0.065,0.18,0.051,0.04,0.19|
0.065,0.18,0.074,0.06,0.18,0.13,0.15,0.16|
0.13,0.24,0.13,0.16,0.042,0.13,0.095,0.073|
0.12,0.062,0.12,0.16,0.16,0.094,0.18,0.11|
0.13,0.058,0.11,0.14,0.17,0.17,0.099,0.12|
0.25,0.16,0.21,0.22,0.021,0.074,0.044,0.011|
];
transition_y2=[
0.17,0.13,0.17,0.18,0.039,0.14,0.16,0.0066|
0.093,0.093,0.12,0.2,0.15,0.16,0.17,0.013|
0.13,0.08,0.18,0.16,0.17,0.097,0.0054,0.18|
0.028,0.047,0.26,0.16,0.28,0.011,0.011,0.2|
0.16,0.035,0.21,0.19,0.15,0.078,0.14,0.039|
0.11,0.072,0.024,0.21,0.081,0.17,0.17,0.17|
0.068,0.051,0.18,0.13,0.048,0.2,0.14,0.18|
0.16,0.078,0.097,0.16,0.044,0.25,0.2,0.0069|
];
transition_y3=[
0.18,0.2,0.11,0.1,0.072,0.2,0.11,0.027|
0.23,0.11,0.028,0.22,0.23,0.069,0.0066,0.1|
0.19,0.079,0.16,0.065,0.072,0.08,0.26,0.087|
0.22,0.13,0.011,0.19,0.05,0.023,0.21,0.17|
0.067,0.25,0.069,0.24,0.0032,0.021,0.14,0.22|
0.086,0.16,0.16,0.019,0.098,0.15,0.075,0.25|
0.18,0.067,0.2,0.0057,0.16,0.094,0.12,0.18|
0.017,0.22,0.073,0.18,0.14,0.26,0.09,0.013|
];
transition_y4=[
0.27,0.11,0.018,0.083,0.15,0.17,0.011,0.19|
0.18,0.17,0.21,0.0036,0.09,0.041,0.15,0.16|
0.0097,0.055,0.034,0.29,0.13,0.067,0.15,0.27|
0.061,0.042,0.23,0.19,0.2,0.17,0.076,0.03|
0.22,0.23,0.23,0.042,0.025,0.037,0.15,0.069|
0.12,0.052,0.069,0.24,0.091,0.13,0.22,0.082|
0.027,0.016,0.11,0.11,0.11,0.21,0.21,0.21|
0.065,0.1,0.019,0.15,0.11,0.13,0.22,0.2|
];
transition_y5=[
0.12,0.17,0.095,0.16,0.12,0.089,0.11,0.13|
0.17,0.13,0.12,0.034,0.21,0.083,0.1,0.15|
0.18,0.02,0.13,0.18,0.16,0.05,0.18,0.096|
0.15,0.11,0.22,0.23,0.13,0.0034,0.0048,0.16|
0.2,0.04,0.2,0.12,0.13,0.1,0.17,0.048|
0.07,0.22,0.14,0.15,0.052,0.083,0.17,0.11|
0.063,0.2,0.075,0.17,0.029,0.16,0.22,0.082|
0.087,0.25,0.31,0.11,0.088,0.09,0.033,0.035|
];
transition_y6=[
0.19,0.097,0.097,0.18,0.0045,0.086,0.11,0.23|
0.16,0.13,0.089,0.1,0.16,0.15,0.11,0.095|
0.093,0.18,0.1,0.044,0.2,0.088,0.12,0.17|
0.18,0.088,0.16,0.14,0.18,0.097,0.13,0.03|
0.12,0.18,0.13,0.049,0.042,0.2,0.1,0.19|
0.024,0.13,0.18,0.08,0.021,0.12,0.22,0.22|
0.12,0.17,0.061,0.075,0.22,0.17,0.16,0.021|
0.12,0.091,0.09,0.21,0.071,0.19,0.18,0.043|
];
